p cnf 92 319
4 -2 0
4 3 0
2 -3 -4 0
4 -5 -6 0
-4 5 -6 0
4 5 6 0
-4 -5 6 0
7 -1 0
7 -6 0
1 6 -7 0
-11 9 0
-11 -10 0
-9 10 11 0
13 -11 0
13 -12 0
11 12 -13 0
15 -13 0
15 14 0
13 -14 -15 0
16 -8 0
16 -15 0
8 15 -16 0
-17 7 0
-17 -16 0
-7 16 17 0
-19 -18 0
-19 9 0
18 -9 19 0
-20 2 0
-20 -8 0
-2 8 20 0
-20 14 -21 0
20 -14 -21 0
-20 -14 21 0
20 14 21 0
-19 -21 -22 0
19 21 -22 0
-19 21 22 0
19 -21 22 0
17 22 -23 0
-17 -22 -23 0
17 -22 23 0
-17 22 23 0
19 -20 -24 0
-19 20 -24 0
19 20 24 0
-19 -20 24 0
26 -4 0
26 -25 0
4 25 -26 0
-26 -4 -27 0
26 4 -27 0
-26 4 27 0
26 -4 27 0
-28 24 0
-28 27 0
-24 -27 28 0
-23 -28 -29 0
23 28 -29 0
-23 28 29 0
23 -28 29 0
18 -10 -30 0
-18 10 -30 0
18 10 30 0
-18 -10 30 0
-30 -4 -31 0
30 4 -31 0
-30 4 31 0
30 -4 31 0
-32 -9 0
-32 -15 0
9 15 32 0
32 -16 -33 0
-32 16 -33 0
32 16 33 0
-32 -16 33 0
-31 33 -34 0
31 -33 -34 0
-31 -33 34 0
31 33 34 0
-35 -29 0
-35 -34 0
29 34 35 0
-36 9 0
-36 -2 0
-9 2 36 0
-37 36 0
-37 13 0
-36 -13 37 0
-21 36 -38 0
21 -36 -38 0
-21 -36 38 0
21 36 38 0
39 3 0
39 -6 0
-3 6 -39 0
40 39 0
40 11 0
-39 -11 -40 0
-41 -38 0
-41 -40 0
38 40 41 0
42 -37 0
42 41 0
37 -41 -42 0
44 43 0
44 -8 0
-43 8 -44 0
42 44 -45 0
-42 -44 -45 0
42 -44 45 0
-42 44 45 0
-47 -12 0
-47 46 0
12 -46 47 0
-47 -3 -48 0
47 3 -48 0
-47 3 48 0
47 -3 48 0
-48 -6 -49 0
48 6 -49 0
-48 6 49 0
48 -6 49 0
-50 14 0
-50 -47 0
-14 47 50 0
-51 -49 0
-51 50 0
49 -50 51 0
52 -20 0
52 -10 0
20 10 -52 0
-51 -52 -53 0
51 52 -53 0
-51 52 53 0
51 -52 53 0
-54 -4 0
-54 8 0
4 -8 54 0
-55 -16 0
-55 14 0
16 -14 55 0
56 -5 0
56 55 0
5 -55 -56 0
54 -56 -57 0
-54 56 -57 0
54 56 57 0
-54 -56 57 0
-58 53 0
-58 57 0
-53 -57 58 0
-45 58 -59 0
45 -58 -59 0
-45 -58 59 0
45 58 59 0
-60 -4 0
-60 -12 0
4 12 60 0
61 -43 0
61 12 0
43 -12 -61 0
-62 -61 0
-62 -15 0
61 15 62 0
8 62 -63 0
-8 -62 -63 0
8 -62 63 0
-8 62 63 0
-25 48 -64 0
25 -48 -64 0
-25 -48 64 0
25 48 64 0
-65 -13 0
-65 64 0
13 -64 65 0
66 -63 0
66 65 0
63 -65 -66 0
60 -66 -67 0
-60 66 -67 0
60 66 67 0
-60 -66 67 0
-68 -9 0
-68 1 0
9 -1 68 0
69 68 0
69 -2 0
-68 2 -69 0
70 -67 0
70 -69 0
67 69 -70 0
-5 68 -71 0
5 -68 -71 0
-5 -68 71 0
5 68 71 0
-71 -1 -72 0
71 1 -72 0
-71 1 72 0
71 -1 72 0
-73 72 0
-73 10 0
-72 -10 73 0
-74 1 0
-74 24 0
-1 -24 74 0
-74 75 -76 0
74 -75 -76 0
-74 -75 76 0
74 75 76 0
77 -47 0
77 -20 0
47 20 -77 0
78 -77 0
78 -46 0
77 46 -78 0
-5 78 -79 0
5 -78 -79 0
-5 -78 79 0
5 78 79 0
80 76 0
80 79 0
-76 -79 -80 0
81 -73 0
81 -80 0
73 80 -81 0
70 -81 -82 0
-70 81 -82 0
70 81 82 0
-70 -81 82 0
83 -59 0
83 -82 0
59 82 -83 0
35 -83 -84 0
-35 83 -84 0
35 83 84 0
-35 -83 84 0
-85 -26 0
-85 -8 0
26 8 85 0
-86 85 0
-86 -36 0
-85 36 86 0
-25 -5 -87 0
25 5 -87 0
-25 5 87 0
25 -5 87 0
-87 -10 -88 0
87 10 -88 0
-87 10 88 0
87 -10 88 0
89 -62 0
89 -68 0
62 68 -89 0
-88 -89 -90 0
88 89 -90 0
-88 89 90 0
88 -89 90 0
-86 -90 -91 0
86 90 -91 0
-86 90 91 0
86 -90 91 0
92 -84 0
92 -91 0
84 91 -92 0
30 -74 -59 -73 -51 0
32 -39 0
-6 -17 63 78 72 0
20 -37 -10 29 -84 92 0
84 65 15 75 -77 0
72 44 -74 11 -27 0
-18 45 85 -39 48 21 0
66 48 76 -40 38 0
-25 92 -15 66 0
-3 81 -85 0
-6 28 52 -40 22 33 0
22 -21 73 1 26 57 0
-20 66 7 0
-58 67 15 13 79 0
-73 -55 -66 80 0
-46 -87 -5 0
69 -5 91 23 0
-13 45 83 -9 -65 32 0
-37 -12 0
-57 -30 0
-3 -46 0
-92 -74 43 0
-76 47 57 -13 51 0
-91 8 48 60 6 0
15 6 67 39 -34 0
-91 -11 0
4 -26 0
-11 -43 -31 16 -64 0
35 -77 0
5 -66 84 10 0
-75 24 -60 0
-36 -86 57 69 61 0
-66 80 69 -42 47 -17 0
64 -29 36 24 0
29 -51 -63 -87 0
-8 -6 76 -12 -54 -36 0
-76 58 -47 48 0
-64 73 32 0
-62 58 -44 -20 69 -65 0
32 50 -53 38 83 -79 0
14 27 0
34 87 78 0
69 1 0
-29 -52 9 -18 88 45 0
28 39 79 -51 42 -63 0
49 7 50 -85 25 90 0
63 56 0
8 -31 0
-7 13 37 15 8 0
-46 -53 40 24 26 0
63 -47 -80 0
86 83 -43 0
-13 -30 70 14 91 0
92 0
